c Sudoku solution
p cnf 729 0
129 0
142 0
251 0
264 0
314 0
378 0
386 0
392 0
519 0
526 0
531 0
321 0
554 0
562 0
583 0
622 0
648 0
598 0
689 0
713 0
724 0
795 0
853 0
861 0
911 0
441 0
877 0
575 0
547 0
944 0
958 0
752 0
982 0
168 0
472 0
999 0
973 0
279 0
435 0
634 0
423 0
617 0
418 0
663 0
655 0
174 0
936 0
285 0
115 0
216 0
232 0
228 0
156 0
243 0
297 0
193 0
181 0
137 0
333 0
812 0
927 0
825 0
767 0
965 0
345 0
459 0
466 0
357 0
369 0
788 0
771 0
896 0
884 0
746 0
849 0
739 0
838 0
676 0
691 0
487 0
494 0
